NAME           caca-example
ROWS
 N  obj     
 L  c1
 L  c2
COLUMNS
    x1        obj                             -2
    x2        obj                             -3
    x1        c1                              5
    x2        c1                              4
    x1        c2                              1
    x2        c2                              2
RHS
    rhs       c1                              32
    rhs       c2                              10
BOUNDS
ENDATA
